%nprocshared=4
%chk=rupdate.chk
# opt freq b3lyp/6-31g* geom=connectivity

reaction
new with updated version

0 2
 C                 -3.49580781   -0.73909965   -0.06097768
 H                 -3.38341165   -0.13612032   -0.93772338
 Cl                -0.92303720   -1.61416879    0.83048481
 H                 -2.27239276   -1.15521686    0.36293514
 Cl                -4.49426465   -2.13914817   -0.43587509
 Cl                -4.26546990    0.20763703    1.20745046

 1 2 1.0 4 0.5 5 1.0 6 1.0
 2
 3 4 0.5
 4
 5
 6

