%nproc=4
%chk=rxn.chk
# opt freq b3lyp/6-31g* geom=connectivity

Title Card Required

0 2
 C                 -3.80165283   -0.63510750   -0.16676484
 H                 -4.40878071   -1.48641724   -0.39510825
 H                 -4.26933727   -0.05951228    0.60391239
 H                 -3.68917071   -0.03258018   -1.04340767
 Cl                -0.61729810   -1.71787321    0.93600593
 H                 -2.35800326   -1.12640498    0.33377942

 1 2 1.0 3 1.0 4 1.0 6 0.5
 2
 3
 4
 5 6 0.5
 6

